results_rootrelaxation/bin012_070_007.srr.sol
solution status: optimal solution found
objective value:                     7.19903691813804
_var713_                            0.208667736757625 	(obj:0)
_var719_                           0.0593900481540946 	(obj:0)
_var748_                            0.195826645264847 	(obj:1)
_var749_                           0.0353130016051363 	(obj:1)
_var751_                            0.223113964686998 	(obj:0)
_var755_                            0.130016051364366 	(obj:0)
_var768_                            0.138041733547351 	(obj:0)
_var791_                            0.268057784911718 	(obj:2)
_var806_                           0.0369181380417344 	(obj:0)
_var810_                            0.263242375601926 	(obj:0)
_var812_                            0.653290529695024 	(obj:0)
_var814_                           0.0353130016051363 	(obj:0)
_var816_                            0.226324237560193 	(obj:0)
_var817_                             0.13322632423756 	(obj:0)
_var822_                           0.0176565008025689 	(obj:2)
_var828_                             0.21669341894061 	(obj:0)
_var829_                           0.0738362760834679 	(obj:1)
_var837_                            0.290529695024077 	(obj:0)
_var838_                           0.0529695024077049 	(obj:0)
_var839_                            0.166934189406099 	(obj:1)
_var842_                            0.341894060995185 	(obj:1)
_var845_                            0.210272873194221 	(obj:1)
_var846_                            0.560192616372391 	(obj:0)
_var856_                             0.25521669341894 	(obj:1)
_var860_                           0.0930979133226315 	(obj:0)
_var861_                            0.285714285714285 	(obj:0)
_var863_                            0.523274478330658 	(obj:0)
_var865_                            0.248796147672551 	(obj:1)
_var868_                            0.113964686998396 	(obj:1)
_var871_                            0.199036918138041 	(obj:0)
_var872_                            0.170144462279294 	(obj:1)
_var874_                            0.142857142857143 	(obj:1)
_var875_                            0.109149277688603 	(obj:1)
_var876_                            0.240770465489567 	(obj:2)
_var877_                            0.136436597110755 	(obj:2)
_var879_                            0.112359550561796 	(obj:1)
_var883_                            0.399678972712681 	(obj:2)
_var885_                            0.155698234349921 	(obj:1)
_var887_                            0.130016051364366 	(obj:1)
_var889_                            0.282504012841093 	(obj:0)
_var890_                          0.00642054574638784 	(obj:2)
_var894_                            0.078651685393259 	(obj:0)
_var895_                            0.476725521669342 	(obj:1)
_var903_                           0.0963081861958269 	(obj:0)
_var906_                           0.0690208667736747 	(obj:2)
_var908_                           0.0481540930979135 	(obj:1)
_var910_                            0.160513643659711 	(obj:2)
_var916_                            0.285714285714286 	(obj:2)
_var918_                           0.0834670947030505 	(obj:2)
_var921_                           0.0449438202247194 	(obj:0)
_var923_                            0.253611556982343 	(obj:1)
_var925_                            0.142857142857143 	(obj:1)
_var926_                            0.372391653290528 	(obj:0)
_var930_                           0.0947030497592298 	(obj:2)
_var931_                           0.0160513643659707 	(obj:0)
_var932_                            0.174959871589085 	(obj:1)
_var933_                            0.345104333868379 	(obj:0)
_var936_                          0.00160513643659693 	(obj:2)
_var937_                           0.0898876404494382 	(obj:1)
_var938_                           0.0160513643659702 	(obj:1)
_var939_                          0.00642054574638867 	(obj:1)
