results_rootrelaxation/bin012_070_007.srr.log
SCIP version 8.0.3.5 [precision: 8 byte] [memory: block] [mode: optimized] [LP solver: Soplex 6.0.1.3] [GitHash: 438792519e]
Copyright (c) 2002-2023 Zuse Institute Berlin (ZIB)

External libraries: 
  Readline 8.1         GNU library for command line editing (gnu.org/s/readline)
  Soplex 6.0.1.3       Linear Programming Solver developed at Zuse Institute Berlin (soplex.zib.de) [GitHash: 713be0fe]
  CppAD 20180000.0     Algorithmic Differentiation of C++ algorithms developed by B. Bell (github.com/coin-or/CppAD)
  ZLIB 1.2.11          General purpose compression library by J. Gailly and M. Adler (zlib.net)
  bliss 0.77           Computing Graph Automorphism Groups by T. Junttila and P. Kaski (www.tcs.hut.fi/Software/bliss/)

user parameter file <scip.set> not found - using default parameters

srr/relaxation = TRUE

read problem <instances/bin012_070_007.srr>
============

Original problem: 
original problem has 0 variables (0 bin, 0 int, 0 impl, 0 cont) and 77 constraints

presolving:
presolving (1 rounds: 1 fast, 1 medium, 1 exhaustive):
 0 deleted vars, 0 deleted constraints, 0 added constraints, 0 tightened bounds, 0 added holes, 0 changed sides, 0 changed coefficients
 0 implications, 0 cliques
presolved problem has 0 variables (0 bin, 0 int, 0 impl, 0 cont) and 77 constraints
     77 constraints of type <linear>
Presolving Time: 0.00

 time | node  | left  |LP iter|LP it/n|mem/heur|mdpt |vars |cons |rows |cuts |sepa|confs|strbr|  dualbound   | primalbound  |  gap   | compl. 
  0.0s|     1 |     0 |     1 |     - |   710k |   0 |   1 |  77 |  77 |   0 |  0 |   0 |   0 |      --      |      --      |    Inf | unknown
r 0.1s|     1 |     0 |  1355 |     - |simplero|   0 | 710 |  77 |  77 |   0 |  0 |   0 |   0 |      --      | 2.671371e+01 |    Inf | unknown
r 0.1s|     1 |     0 |  1393 |     - |simplero|   0 | 721 |  77 |  77 |   0 |  0 |   0 |   0 |      --      | 2.370420e+01 |    Inf | unknown
r 0.1s|     1 |     0 |  1442 |     - |simplero|   0 | 732 |  77 |  77 |   0 |  0 |   0 |   0 |      --      | 2.141778e+01 |    Inf | unknown
r 0.1s|     1 |     0 |  1494 |     - |simplero|   0 | 743 |  77 |  77 |   0 |  0 |   0 |   0 |      --      | 1.983143e+01 |    Inf | unknown
r 0.1s|     1 |     0 |  1565 |     - |simplero|   0 | 754 |  77 |  77 |   0 |  0 |   0 |   0 |      --      | 1.791474e+01 |    Inf | unknown
r 0.1s|     1 |     0 |  1627 |     - |simplero|   0 | 765 |  77 |  77 |   0 |  0 |   0 |   0 |      --      | 1.560154e+01 |    Inf | unknown
r 0.1s|     1 |     0 |  1669 |     - |simplero|   0 | 776 |  77 |  77 |   0 |  0 |   0 |   0 |      --      | 1.436113e+01 |    Inf | unknown
r 0.1s|     1 |     0 |  1678 |     - |simplero|   0 | 776 |  77 |  77 |   0 |  0 |   0 |   0 |      --      | 1.429735e+01 |    Inf | unknown
r 0.1s|     1 |     0 |  1721 |     - |simplero|   0 | 787 |  77 |  77 |   0 |  0 |   0 |   0 |      --      | 1.309143e+01 |    Inf | unknown
r 0.1s|     1 |     0 |  1734 |     - |simplero|   0 | 787 |  77 |  77 |   0 |  0 |   0 |   0 |      --      | 1.301488e+01 |    Inf | unknown
r 0.1s|     1 |     0 |  1736 |     - |simplero|   0 | 787 |  77 |  77 |   0 |  0 |   0 |   0 |      --      | 1.301135e+01 |    Inf | unknown
r 0.1s|     1 |     0 |  1769 |     - |simplero|   0 | 798 |  77 |  77 |   0 |  0 |   0 |   0 |      --      | 1.203677e+01 |    Inf | unknown
r 0.1s|     1 |     0 |  1776 |     - |simplero|   0 | 798 |  77 |  77 |   0 |  0 |   0 |   0 |      --      | 1.202756e+01 |    Inf | unknown
r 0.1s|     1 |     0 |  1779 |     - |simplero|   0 | 798 |  77 |  77 |   0 |  0 |   0 |   0 |      --      | 1.202605e+01 |    Inf | unknown
 time | node  | left  |LP iter|LP it/n|mem/heur|mdpt |vars |cons |rows |cuts |sepa|confs|strbr|  dualbound   | primalbound  |  gap   | compl. 
r 0.1s|     1 |     0 |  1815 |     - |simplero|   0 | 809 |  77 |  77 |   0 |  0 |   0 |   0 |      --      | 1.149768e+01 |    Inf | unknown
r 0.1s|     1 |     0 |  1829 |     - |simplero|   0 | 809 |  77 |  77 |   0 |  0 |   0 |   0 |      --      | 1.135959e+01 |    Inf | unknown
r 0.1s|     1 |     0 |  1854 |     - |simplero|   0 | 820 |  77 |  77 |   0 |  0 |   0 |   0 |      --      | 1.091595e+01 |    Inf | unknown
r 0.1s|     1 |     0 |  1863 |     - |simplero|   0 | 820 |  77 |  77 |   0 |  0 |   0 |   0 |      --      | 1.088599e+01 |    Inf | unknown
r 0.1s|     1 |     0 |  1893 |     - |simplero|   0 | 831 |  77 |  77 |   0 |  0 |   0 |   0 |      --      | 1.035076e+01 |    Inf | unknown
r 0.1s|     1 |     0 |  1909 |     - |simplero|   0 | 831 |  77 |  77 |   0 |  0 |   0 |   0 |      --      | 1.030077e+01 |    Inf | unknown
r 0.1s|     1 |     0 |  1947 |     - |simplero|   0 | 841 |  77 |  77 |   0 |  0 |   0 |   0 |      --      | 9.832959e+00 |    Inf | unknown
r 0.1s|     1 |     0 |  1962 |     - |simplero|   0 | 841 |  77 |  77 |   0 |  0 |   0 |   0 |      --      | 9.750031e+00 |    Inf | unknown
r 0.1s|     1 |     0 |  1964 |     - |simplero|   0 | 841 |  77 |  77 |   0 |  0 |   0 |   0 |      --      | 9.747749e+00 |    Inf | unknown
r 0.1s|     1 |     0 |  2001 |     - |simplero|   0 | 852 |  77 |  77 |   0 |  0 |   0 |   0 |      --      | 9.101815e+00 |    Inf | unknown
r 0.1s|     1 |     0 |  2020 |     - |simplero|   0 | 863 |  77 |  77 |   0 |  0 |   0 |   0 |      --      | 8.867839e+00 |    Inf | unknown
r 0.1s|     1 |     0 |  2026 |     - |simplero|   0 | 863 |  77 |  77 |   0 |  0 |   0 |   0 |      --      | 8.822461e+00 |    Inf | unknown
r 0.1s|     1 |     0 |  2028 |     - |simplero|   0 | 863 |  77 |  77 |   0 |  0 |   0 |   0 |      --      | 8.820752e+00 |    Inf | unknown
r 0.1s|     1 |     0 |  2055 |     - |simplero|   0 | 874 |  77 |  77 |   0 |  0 |   0 |   0 |      --      | 8.384040e+00 |    Inf | unknown
r 0.1s|     1 |     0 |  2060 |     - |simplero|   0 | 874 |  77 |  77 |   0 |  0 |   0 |   0 |      --      | 8.377003e+00 |    Inf | unknown
 time | node  | left  |LP iter|LP it/n|mem/heur|mdpt |vars |cons |rows |cuts |sepa|confs|strbr|  dualbound   | primalbound  |  gap   | compl. 
r 0.1s|     1 |     0 |  2095 |     - |simplero|   0 | 884 |  77 |  77 |   0 |  0 |   0 |   0 |      --      | 7.842079e+00 |    Inf | unknown
  0.1s|     1 |     0 |  2105 |     - |  4243k |   0 | 884 |  77 |  77 |   0 |  0 |   0 |   0 |      --      | 7.842079e+00 |    Inf | unknown
r 0.1s|     1 |     0 |  2105 |     - |simplero|   0 | 884 |  77 |  77 |   0 |  0 |   0 |   0 |      --      | 7.788491e+00 |    Inf | unknown
r 0.1s|     1 |     0 |  2111 |     - |simplero|   0 | 884 |  77 |  77 |   0 |  0 |   0 |   0 |      --      | 7.785241e+00 |    Inf | unknown
r 0.1s|     1 |     0 |  2148 |     - |simplero|   0 | 893 |  77 |  77 |   0 |  0 |   0 |   0 |      --      | 7.536213e+00 |    Inf | unknown
r 0.1s|     1 |     0 |  2150 |     - |simplero|   0 | 893 |  77 |  77 |   0 |  0 |   0 |   0 |      --      | 7.535714e+00 |    Inf | unknown
r 0.1s|     1 |     0 |  2170 |     - |simplero|   0 | 899 |  77 |  77 |   0 |  0 |   0 |   0 |      --      | 7.464930e+00 |    Inf | unknown
r 0.1s|     1 |     0 |  2175 |     - |simplero|   0 | 899 |  77 |  77 |   0 |  0 |   0 |   0 |      --      | 7.463354e+00 |    Inf | unknown
r 0.1s|     1 |     0 |  2191 |     - |simplero|   0 | 908 |  77 |  77 |   0 |  0 |   0 |   0 |      --      | 7.372423e+00 |    Inf | unknown
r 0.1s|     1 |     0 |  2199 |     - |simplero|   0 | 908 |  77 |  77 |   0 |  0 |   0 |   0 |      --      | 7.359375e+00 |    Inf | unknown
r 0.1s|     1 |     0 |  2212 |     - |simplero|   0 | 916 |  77 |  77 |   0 |  0 |   0 |   0 |      --      | 7.322010e+00 |    Inf | unknown
r 0.1s|     1 |     0 |  2224 |     - |simplero|   0 | 924 |  77 |  77 |   0 |  0 |   0 |   0 |      --      | 7.284123e+00 |    Inf | unknown
r 0.1s|     1 |     0 |  2227 |     - |simplero|   0 | 924 |  77 |  77 |   0 |  0 |   0 |   0 |      --      | 7.283737e+00 |    Inf | unknown
r 0.1s|     1 |     0 |  2246 |     - |simplero|   0 | 929 |  77 |  77 |   0 |  0 |   0 |   0 |      --      | 7.243377e+00 |    Inf | unknown
r 0.1s|     1 |     0 |  2262 |     - |simplero|   0 | 934 |  77 |  77 |   0 |  0 |   0 |   0 |      --      | 7.205634e+00 |    Inf | unknown
 time | node  | left  |LP iter|LP it/n|mem/heur|mdpt |vars |cons |rows |cuts |sepa|confs|strbr|  dualbound   | primalbound  |  gap   | compl. 
r 0.1s|     1 |     0 |  2269 |     - |simplero|   0 | 937 |  77 |  77 |   0 |  0 |   0 |   0 |      --      | 7.200737e+00 |    Inf | unknown
r 0.1s|     1 |     0 |  2273 |     - |simplero|   0 | 938 |  77 |  77 |   0 |  0 |   0 |   0 |      --      | 7.199262e+00 |    Inf | unknown
r 0.1s|     1 |     0 |  2277 |     - |simplero|   0 | 940 |  77 |  77 |   0 |  0 |   0 |   0 |      --      | 7.199037e+00 |    Inf | unknown
  0.1s|     1 |     0 |  2277 |     - |  4497k |   0 | 940 |  77 |  77 |   0 |  0 |   0 |   0 | 7.199037e+00 | 7.199037e+00 |   0.00%| unknown
  0.1s|     1 |     0 |  2277 |     - |  4497k |   0 | 940 |  77 |  77 |   0 |  0 |   0 |   0 | 7.199037e+00 | 7.199037e+00 |   0.00%| unknown

SCIP Status        : problem is solved [optimal solution found]
Solving Time (sec) : 0.13
Solving Nodes      : 1
Primal Bound       : +7.19903691813804e+00 (46 solutions)
Dual Bound         : +7.19903691813804e+00
Gap                : 0.00 %

written transformed problem to file <results_rootrelaxation/bin012_070_007.srr.lp>
written transformed problem to file <results_rootrelaxation/bin012_070_007.srr.cip>


SCIP version 8.0.3.5 [precision: 8 byte] [memory: block] [mode: optimized] [LP solver: Soplex 6.0.1.3] [GitHash: 438792519e]
Copyright (c) 2002-2023 Zuse Institute Berlin (ZIB)

External libraries: 
  Readline 8.1         GNU library for command line editing (gnu.org/s/readline)
  Soplex 6.0.1.3       Linear Programming Solver developed at Zuse Institute Berlin (soplex.zib.de) [GitHash: 713be0fe]
  CppAD 20180000.0     Algorithmic Differentiation of C++ algorithms developed by B. Bell (github.com/coin-or/CppAD)
  ZLIB 1.2.11          General purpose compression library by J. Gailly and M. Adler (zlib.net)
  bliss 0.77           Computing Graph Automorphism Groups by T. Junttila and P. Kaski (www.tcs.hut.fi/Software/bliss/)

user parameter file <scip.set> not found - using default parameters

srr/relaxation = TRUE

read problem <instances/bin012_070_007.srr>
============

Original problem: 
original problem has 0 variables (0 bin, 0 int, 0 impl, 0 cont) and 77 constraints

presolving:
presolving (1 rounds: 1 fast, 1 medium, 1 exhaustive):
 0 deleted vars, 0 deleted constraints, 0 added constraints, 0 tightened bounds, 0 added holes, 0 changed sides, 0 changed coefficients
 0 implications, 0 cliques
presolved problem has 0 variables (0 bin, 0 int, 0 impl, 0 cont) and 77 constraints
     77 constraints of type <linear>
Presolving Time: 0.00

 time | node  | left  |LP iter|LP it/n|mem/heur|mdpt |vars |cons |rows |cuts |sepa|confs|strbr|  dualbound   | primalbound  |  gap   | compl. 
  0.0s|     1 |     0 |     1 |     - |   710k |   0 |   1 |  77 |  77 |   0 |  0 |   0 |   0 |      --      |      --      |    Inf | unknown
r 0.1s|     1 |     0 |  1355 |     - |simplero|   0 | 710 |  77 |  77 |   0 |  0 |   0 |   0 |      --      | 2.671371e+01 |    Inf | unknown
r 0.1s|     1 |     0 |  1393 |     - |simplero|   0 | 721 |  77 |  77 |   0 |  0 |   0 |   0 |      --      | 2.370420e+01 |    Inf | unknown
r 0.1s|     1 |     0 |  1442 |     - |simplero|   0 | 732 |  77 |  77 |   0 |  0 |   0 |   0 |      --      | 2.141778e+01 |    Inf | unknown
r 0.1s|     1 |     0 |  1494 |     - |simplero|   0 | 743 |  77 |  77 |   0 |  0 |   0 |   0 |      --      | 1.983143e+01 |    Inf | unknown
r 0.1s|     1 |     0 |  1565 |     - |simplero|   0 | 754 |  77 |  77 |   0 |  0 |   0 |   0 |      --      | 1.791474e+01 |    Inf | unknown
r 0.1s|     1 |     0 |  1627 |     - |simplero|   0 | 765 |  77 |  77 |   0 |  0 |   0 |   0 |      --      | 1.560154e+01 |    Inf | unknown
r 0.1s|     1 |     0 |  1669 |     - |simplero|   0 | 776 |  77 |  77 |   0 |  0 |   0 |   0 |      --      | 1.436113e+01 |    Inf | unknown
r 0.1s|     1 |     0 |  1678 |     - |simplero|   0 | 776 |  77 |  77 |   0 |  0 |   0 |   0 |      --      | 1.429735e+01 |    Inf | unknown
r 0.1s|     1 |     0 |  1721 |     - |simplero|   0 | 787 |  77 |  77 |   0 |  0 |   0 |   0 |      --      | 1.309143e+01 |    Inf | unknown
r 0.1s|     1 |     0 |  1734 |     - |simplero|   0 | 787 |  77 |  77 |   0 |  0 |   0 |   0 |      --      | 1.301488e+01 |    Inf | unknown
r 0.1s|     1 |     0 |  1736 |     - |simplero|   0 | 787 |  77 |  77 |   0 |  0 |   0 |   0 |      --      | 1.301135e+01 |    Inf | unknown
r 0.1s|     1 |     0 |  1769 |     - |simplero|   0 | 798 |  77 |  77 |   0 |  0 |   0 |   0 |      --      | 1.203677e+01 |    Inf | unknown
r 0.1s|     1 |     0 |  1776 |     - |simplero|   0 | 798 |  77 |  77 |   0 |  0 |   0 |   0 |      --      | 1.202756e+01 |    Inf | unknown
r 0.1s|     1 |     0 |  1779 |     - |simplero|   0 | 798 |  77 |  77 |   0 |  0 |   0 |   0 |      --      | 1.202605e+01 |    Inf | unknown
 time | node  | left  |LP iter|LP it/n|mem/heur|mdpt |vars |cons |rows |cuts |sepa|confs|strbr|  dualbound   | primalbound  |  gap   | compl. 
r 0.1s|     1 |     0 |  1815 |     - |simplero|   0 | 809 |  77 |  77 |   0 |  0 |   0 |   0 |      --      | 1.149768e+01 |    Inf | unknown
r 0.1s|     1 |     0 |  1829 |     - |simplero|   0 | 809 |  77 |  77 |   0 |  0 |   0 |   0 |      --      | 1.135959e+01 |    Inf | unknown
r 0.1s|     1 |     0 |  1854 |     - |simplero|   0 | 820 |  77 |  77 |   0 |  0 |   0 |   0 |      --      | 1.091595e+01 |    Inf | unknown
r 0.1s|     1 |     0 |  1863 |     - |simplero|   0 | 820 |  77 |  77 |   0 |  0 |   0 |   0 |      --      | 1.088599e+01 |    Inf | unknown
r 0.1s|     1 |     0 |  1893 |     - |simplero|   0 | 831 |  77 |  77 |   0 |  0 |   0 |   0 |      --      | 1.035076e+01 |    Inf | unknown
r 0.1s|     1 |     0 |  1909 |     - |simplero|   0 | 831 |  77 |  77 |   0 |  0 |   0 |   0 |      --      | 1.030077e+01 |    Inf | unknown
r 0.1s|     1 |     0 |  1947 |     - |simplero|   0 | 841 |  77 |  77 |   0 |  0 |   0 |   0 |      --      | 9.832959e+00 |    Inf | unknown
r 0.1s|     1 |     0 |  1962 |     - |simplero|   0 | 841 |  77 |  77 |   0 |  0 |   0 |   0 |      --      | 9.750031e+00 |    Inf | unknown
r 0.1s|     1 |     0 |  1964 |     - |simplero|   0 | 841 |  77 |  77 |   0 |  0 |   0 |   0 |      --      | 9.747749e+00 |    Inf | unknown
r 0.1s|     1 |     0 |  2001 |     - |simplero|   0 | 852 |  77 |  77 |   0 |  0 |   0 |   0 |      --      | 9.101815e+00 |    Inf | unknown
r 0.1s|     1 |     0 |  2020 |     - |simplero|   0 | 863 |  77 |  77 |   0 |  0 |   0 |   0 |      --      | 8.867839e+00 |    Inf | unknown
r 0.1s|     1 |     0 |  2026 |     - |simplero|   0 | 863 |  77 |  77 |   0 |  0 |   0 |   0 |      --      | 8.822461e+00 |    Inf | unknown
r 0.1s|     1 |     0 |  2028 |     - |simplero|   0 | 863 |  77 |  77 |   0 |  0 |   0 |   0 |      --      | 8.820752e+00 |    Inf | unknown
r 0.1s|     1 |     0 |  2055 |     - |simplero|   0 | 874 |  77 |  77 |   0 |  0 |   0 |   0 |      --      | 8.384040e+00 |    Inf | unknown
r 0.1s|     1 |     0 |  2060 |     - |simplero|   0 | 874 |  77 |  77 |   0 |  0 |   0 |   0 |      --      | 8.377003e+00 |    Inf | unknown
 time | node  | left  |LP iter|LP it/n|mem/heur|mdpt |vars |cons |rows |cuts |sepa|confs|strbr|  dualbound   | primalbound  |  gap   | compl. 
r 0.1s|     1 |     0 |  2095 |     - |simplero|   0 | 884 |  77 |  77 |   0 |  0 |   0 |   0 |      --      | 7.842079e+00 |    Inf | unknown
  0.1s|     1 |     0 |  2105 |     - |  4243k |   0 | 884 |  77 |  77 |   0 |  0 |   0 |   0 |      --      | 7.842079e+00 |    Inf | unknown
r 0.1s|     1 |     0 |  2105 |     - |simplero|   0 | 884 |  77 |  77 |   0 |  0 |   0 |   0 |      --      | 7.788491e+00 |    Inf | unknown
r 0.1s|     1 |     0 |  2111 |     - |simplero|   0 | 884 |  77 |  77 |   0 |  0 |   0 |   0 |      --      | 7.785241e+00 |    Inf | unknown
r 0.1s|     1 |     0 |  2148 |     - |simplero|   0 | 893 |  77 |  77 |   0 |  0 |   0 |   0 |      --      | 7.536213e+00 |    Inf | unknown
r 0.1s|     1 |     0 |  2150 |     - |simplero|   0 | 893 |  77 |  77 |   0 |  0 |   0 |   0 |      --      | 7.535714e+00 |    Inf | unknown
r 0.1s|     1 |     0 |  2170 |     - |simplero|   0 | 899 |  77 |  77 |   0 |  0 |   0 |   0 |      --      | 7.464930e+00 |    Inf | unknown
r 0.1s|     1 |     0 |  2175 |     - |simplero|   0 | 899 |  77 |  77 |   0 |  0 |   0 |   0 |      --      | 7.463354e+00 |    Inf | unknown
r 0.1s|     1 |     0 |  2191 |     - |simplero|   0 | 908 |  77 |  77 |   0 |  0 |   0 |   0 |      --      | 7.372423e+00 |    Inf | unknown
r 0.1s|     1 |     0 |  2199 |     - |simplero|   0 | 908 |  77 |  77 |   0 |  0 |   0 |   0 |      --      | 7.359375e+00 |    Inf | unknown
r 0.1s|     1 |     0 |  2212 |     - |simplero|   0 | 916 |  77 |  77 |   0 |  0 |   0 |   0 |      --      | 7.322010e+00 |    Inf | unknown
r 0.1s|     1 |     0 |  2224 |     - |simplero|   0 | 924 |  77 |  77 |   0 |  0 |   0 |   0 |      --      | 7.284123e+00 |    Inf | unknown
r 0.1s|     1 |     0 |  2227 |     - |simplero|   0 | 924 |  77 |  77 |   0 |  0 |   0 |   0 |      --      | 7.283737e+00 |    Inf | unknown
r 0.1s|     1 |     0 |  2246 |     - |simplero|   0 | 929 |  77 |  77 |   0 |  0 |   0 |   0 |      --      | 7.243377e+00 |    Inf | unknown
r 0.1s|     1 |     0 |  2262 |     - |simplero|   0 | 934 |  77 |  77 |   0 |  0 |   0 |   0 |      --      | 7.205634e+00 |    Inf | unknown
 time | node  | left  |LP iter|LP it/n|mem/heur|mdpt |vars |cons |rows |cuts |sepa|confs|strbr|  dualbound   | primalbound  |  gap   | compl. 
r 0.1s|     1 |     0 |  2269 |     - |simplero|   0 | 937 |  77 |  77 |   0 |  0 |   0 |   0 |      --      | 7.200737e+00 |    Inf | unknown
r 0.1s|     1 |     0 |  2273 |     - |simplero|   0 | 938 |  77 |  77 |   0 |  0 |   0 |   0 |      --      | 7.199262e+00 |    Inf | unknown
r 0.1s|     1 |     0 |  2277 |     - |simplero|   0 | 940 |  77 |  77 |   0 |  0 |   0 |   0 |      --      | 7.199037e+00 |    Inf | unknown
  0.1s|     1 |     0 |  2277 |     - |  4497k |   0 | 940 |  77 |  77 |   0 |  0 |   0 |   0 | 7.199037e+00 | 7.199037e+00 |   0.00%| unknown
  0.1s|     1 |     0 |  2277 |     - |  4497k |   0 | 940 |  77 |  77 |   0 |  0 |   0 |   0 | 7.199037e+00 | 7.199037e+00 |   0.00%| unknown

SCIP Status        : problem is solved [optimal solution found]
Solving Time (sec) : 0.11
Solving Nodes      : 1
Primal Bound       : +7.19903691813804e+00 (46 solutions)
Dual Bound         : +7.19903691813804e+00
Gap                : 0.00 %

written transformed problem to file <results_rootrelaxation/bin012_070_007.srr.lp>
written transformed problem to file <results_rootrelaxation/bin012_070_007.srr.cip>

written solution information to file <results_rootrelaxation/bin012_070_007.srr.sol>



